120
150
70
95
79
70
39
42
67
72
29
48
21
39
83
70
76
47
48
83
67
71
56
23
72
76
39
47
27
45
35
70
67
83
24
29
97
33
67
61
56
33
39
33
24
77
72
63
34
53
51
39
63
25
61
36
42
72
61
26
63
67
33
63
86
39
56
67
83
83
51
39
70
52
98
33
33
47
45
33
72
33
46
81
69
56
51
43
29
46
83
51
72
49
29
50
61
39
76
51
70
41
39
51
100
72
77
48
100
51
97
80
70
56
100
49
71
79
59
81
67
83
